study/farce-uclibc/output/TypeErrors/DimacsConstraints/constraint_261.dimacs
c 2 __LINUXTHREADS_OLD__
c 5 __UCLIBC_HAS_CRYPT__
c 1 __UCLIBC_HAS_THREADS_NATIVE__
c 3 __UCLIBC_HAS_STDIO_BUFSIZ_NONE__
c 7 __LINUXTHREADS_NEW__
c 4 __UCLIBC_HAS_THREADS__
c 6 __UCLIBC_HAS_SHA256_CRYPT_IMPL__
p cnf 7 1
1 2 3 -4 -6 -5 7 1
